
;this file is automatically generated: Thu Nov 01 12:11:07 GMT 2018

;declarations generated

(declare-fun type_4d84782b_58f1_4b75_815e_a7374a5a48db_A ( Int) Bool )
(declare-fun oclExcludes ( Int Int) Bool )
(declare-fun oclSelect ( Int Bool) Int )
(declare-fun type_b6c013ed_4942_4b0e_96e4_613f7a3d38e0_C ( Int) Bool )
(declare-fun Cardinality ( Int) Int )
(declare-fun obj_403aaf08_615e_4de3_bf3e_703c2071761e ( Int) Int )
(declare-fun container_ ( Int) Int )
(declare-fun oclIncludes ( Int Int) Bool )
(declare-fun type_31af6a32_b483_4e98_9875_68b870934230_D ( Int) Bool )
(declare-fun type_d4892320_0038_4dfc_ac2b_bb898bd5d8aa_B ( Int) Bool )
(declare-fun aux1 () Int )
(declare-fun aux0 () Int )
(declare-fun aux3 () Int )
(declare-fun aux2 () Int )
(declare-fun aux4 () Int )
(declare-fun weight4 () Int )
(declare-fun weight3 () Int )
(declare-fun ObjAt ( Int Int) Int )
(declare-fun weight2 () Int )
(declare-fun weight1 () Int )
(declare-fun weight0 () Int )

;formula(s) generated
(assert (and (>= aux0 0) (<= aux0 1)))
(assert (or (or (forall ((b Int)) (=> (and ( type_d4892320_0038_4dfc_ac2b_bb898bd5d8aa_B b )  ( type_4d84782b_58f1_4b75_815e_a7374a5a48db_A b ) ) (forall ((c Int)) (=> (and ( type_b6c013ed_4942_4b0e_96e4_613f7a3d38e0_C c )  ( type_4d84782b_58f1_4b75_815e_a7374a5a48db_A c ) ) (not (= ( obj_403aaf08_615e_4de3_bf3e_703c2071761e b )  ( obj_403aaf08_615e_4de3_bf3e_703c2071761e c ) ) ))))) (and (= aux0 1) true)) (and (= aux0 0) false)))
(assert (and (=> (= aux0 0) (= weight0 8)) (=> (= aux0 1) (= weight0 0))))
(assert (and (>= aux1 0) (<= aux1 1)))
(assert (and (>= aux2 0) (<= aux2 1)))
(assert (and (>= aux3 0) (<= aux3 1)))
(assert (and (>= aux4 0) (<= aux4 1)))
(assert (or (or (exists ((p Int)) ( type_4d84782b_58f1_4b75_815e_a7374a5a48db_A ( obj_403aaf08_615e_4de3_bf3e_703c2071761e p )  ) ) (and (= aux1 1) true)) (and (= aux1 0) false)))
(assert (and (=> (= aux1 0) (= weight1 2)) (=> (= aux1 1) (= weight1 0))))
(assert (or (or (exists ((p Int)) (and ( type_d4892320_0038_4dfc_ac2b_bb898bd5d8aa_B ( obj_403aaf08_615e_4de3_bf3e_703c2071761e p )  )  ( type_4d84782b_58f1_4b75_815e_a7374a5a48db_A ( obj_403aaf08_615e_4de3_bf3e_703c2071761e p )  ) )) (and (= aux2 1) true)) (and (= aux2 0) false)))
(assert (and (=> (= aux2 0) (= weight2 2)) (=> (= aux2 1) (= weight2 0))))
(assert (or (or (exists ((p Int)) (and ( type_b6c013ed_4942_4b0e_96e4_613f7a3d38e0_C ( obj_403aaf08_615e_4de3_bf3e_703c2071761e p )  )  ( type_4d84782b_58f1_4b75_815e_a7374a5a48db_A ( obj_403aaf08_615e_4de3_bf3e_703c2071761e p )  ) )) (and (= aux3 1) true)) (and (= aux3 0) false)))
(assert (and (=> (= aux3 0) (= weight3 2)) (=> (= aux3 1) (= weight3 0))))
(assert (or (or (exists ((p Int)) (and (and (and ( type_31af6a32_b483_4e98_9875_68b870934230_D ( obj_403aaf08_615e_4de3_bf3e_703c2071761e p )  )  ( type_4d84782b_58f1_4b75_815e_a7374a5a48db_A ( obj_403aaf08_615e_4de3_bf3e_703c2071761e p )  ) ) ( type_d4892320_0038_4dfc_ac2b_bb898bd5d8aa_B ( obj_403aaf08_615e_4de3_bf3e_703c2071761e p )  ) ) ( type_b6c013ed_4942_4b0e_96e4_613f7a3d38e0_C ( obj_403aaf08_615e_4de3_bf3e_703c2071761e p )  ) )) (and (= aux4 1) true)) (and (= aux4 0) false)))
(assert (and (=> (= aux4 0) (= weight4 2)) (=> (= aux4 1) (= weight4 0))))
(assert (= (+ (+ (+ (+ weight0 weight1) weight2) weight3) weight4) 14))
(assert (not (and (and (and (and (= weight0 8) (= weight1 2)) (= weight2 2)) (= weight3 2)) (= weight4 0)) ))
